networks/zoo_317_3790/zoo_317_3790-lower.txt
Number of groups: 95
Flow 1: {125 1 0} {1 83 0} {83 84 0} {84 85 0} {85 81 0} {2 125 0} {98 24 0} {24 19 0} {19 7 0} {7 8 0} {8 65 0} {65 59 0} {61 9 0} {9 188 0} 
Flow 1: {59 61 0} {81 98 0} Flow 2: {2 119 0} {119 126 0} {126 31 0} {40 16 0} {16 14 0} {14 10 0} {10 189 0} 
Flow 2: {31 27 0} {27 26 0} {26 28 0} {28 103 0} {103 109 0} {109 72 0} {133 34 0} {34 38 0} {38 41 0} {41 123 0} {123 36 0} {36 40 0} {72 100 0} {100 130 0} {130 131 0} {131 132 0} {132 133 0} Flow 3: {102 49 0} {49 17 0} {17 196 0} 
Flow 3: {64 44 0} {44 102 0} {59 64 0} Flow 4: {19 198 0} 
Flow 5: {26 205 0} 
Flow 6: {28 207 0} 
Flow 7: {34 213 0} 
Flow 8: {44 223 0} 
Flow 9: {44 46 0} {46 225 0} 
Flow 10: {44 58 0} {58 48 0} {48 227 0} 
Flow 11: {49 228 0} 
Flow 12: {96 94 0} {94 55 0} {55 54 0} {54 53 0} {53 232 0} 
Flow 12: {135 97 0} {97 95 0} {95 96 0} {98 99 0} {99 135 0} Flow 13: {46 45 0} {45 57 0} {57 236 0} 
Flow 14: {59 60 0} {60 239 0} 
Flow 15: {61 240 0} 
Flow 16: {64 243 0} 
Flow 17: {60 76 0} {76 79 0} {79 78 0} {121 67 0} {67 246 0} 
Flow 17: {78 77 0} {77 121 0} Flow 18: {83 262 0} 
Flow 19: {85 264 0} 
Flow 20: {10 12 0} {12 93 0} {93 272 0} 
Flow 21: {97 276 0} 
Flow 22: {98 277 0} 
Flow 23: {99 278 0} 
Flow 24: {100 279 0} 
Flow 25: {53 101 0} {101 280 0} 
Flow 26: {102 281 0} 
Flow 27: {103 282 0} 
Flow 28: {126 33 0} {33 30 0} {30 29 0} {29 115 0} {115 113 0} {127 106 0} {106 285 0} 
Flow 28: {113 112 0} {112 127 0} Flow 29: {127 107 0} {107 286 0} 
Flow 30: {109 288 0} 
Flow 31: {112 291 0} 
Flow 32: {115 294 0} 
Flow 33: {119 298 0} 
Flow 34: {123 302 0} 
Flow 35: {125 304 0} 
Flow 36: {126 305 0} 
Flow 37: {28 129 0} {129 128 0} {128 307 0} 
Flow 38: {129 308 0} 
Flow 39: {135 314 0} 
Flow 40: {4 3 0} {3 2 0} Flow 42: {5 125 0} Flow 43: {85 84 0} {84 83 0} {83 1 0} {1 180 0} 
Flow 43: {98 81 0} {81 85 0} Flow 44: {1 125 0} {125 2 0} {2 181 0} 
Flow 44: {7 19 0} {19 24 0} {24 98 0} Flow 45: {2 3 0} {3 182 0} 
Flow 47: {70 69 0} {69 13 0} {13 73 0} {73 15 0} {15 14 0} {121 66 0} {66 70 0} Flow 48: {13 192 0} 
Flow 49: {15 194 0} 
Flow 52: {24 20 0} {20 199 0} 
Flow 53: {109 103 0} {103 28 0} {28 26 0} Flow 54: {135 134 0} {134 100 0} {100 72 0} {72 109 0} Flow 55: {31 210 0} 
Flow 57: {122 43 0} {43 222 0} 
Flow 57: {49 51 0} {51 122 0} Flow 59: {45 224 0} 
Flow 63: {49 50 0} {50 229 0} 
Flow 64: {49 52 0} {52 231 0} 
Flow 65: {57 101 0} {101 53 0} Flow 66: {53 54 0} {54 233 0} 
Flow 67: {69 56 0} {56 235 0} 
Flow 69: {58 237 0} 
Flow 72: {64 63 0} {63 242 0} 
Flow 74: {65 244 0} 
Flow 76: {121 71 0} {71 250 0} 
Flow 77: {72 251 0} 
Flow 78: {73 252 0} 
Flow 80: {84 263 0} 
Flow 82: {43 86 0} {86 88 0} {88 267 0} 
Flow 83: {88 87 0} {87 89 0} {89 268 0} 
Flow 84: {89 92 0} {92 91 0} {91 93 0} Flow 92: {110 105 0} {105 104 0} {104 106 0} {109 110 0} Flow 93: {106 127 0} Flow 94: {138 108 0} {108 287 0} 
Flow 94: {135 136 0} {136 137 0} {137 138 0} Flow 96: {110 289 0} 
Flow 97: {127 112 0} Flow 98: {112 113 0} {113 292 0} 
Flow 99: {119 114 0} {114 293 0} 
Flow 102: {122 301 0} 
Flow 106: {127 306 0} 
Flow 107: {103 128 0} Flow 109: {130 309 0} 
Flow 110: {131 310 0} 
Flow 111: {132 311 0} 
Flow 112: {133 312 0} 
Flow 117: {8 7 0} Flow 150: {10 14 0} {14 16 0} {16 40 0} {40 36 0} {26 27 0} {27 31 0} {31 126 0} {126 119 0} {123 41 0} {41 38 0} {38 34 0} {34 133 0} {133 132 0} {36 123 0} {119 2 0} {132 131 0} {131 130 0} {130 100 0} Flow 151: {73 13 0} {13 69 0} {69 70 0} {70 66 0} {14 15 0} {15 73 0} {79 76 0} {76 60 0} {60 61 0} {66 121 0} {121 77 0} {77 78 0} {78 79 0} Flow 153: {88 86 0} {86 43 0} {43 122 0} {122 51 0} {51 49 0} {92 89 0} {89 87 0} {87 88 0} {93 91 0} {91 92 0} Flow 154: {60 59 0} Flow 158: {124 80 0} {80 75 0} {75 48 0} {48 58 0} {58 44 0} {66 68 0} {68 124 0} Flow 163: {52 101 0} Flow 164: {49 57 0} Flow 168: {59 65 0} Flow 170: {135 99 0} {99 98 0} Flow 171: {100 134 0} {134 135 0} Flow 179: {49 102 0} Flow 186: {113 115 0} Flow 195: {11 17 0} {17 49 0} {102 44 0} {44 64 0} {64 59 0} {65 8 0} Flow 196: {54 55 0} {55 94 0} {94 96 0} {96 95 0} {95 97 0} {97 135 0} Flow 205: {93 12 0} {12 10 0} Flow 278: {8 187 0} 
Flow 281: {17 11 0} {11 190 0} 
Flow 284: {16 195 0} 
Flow 287: {107 22 0} {22 201 0} 
Flow 288: {22 25 0} {25 204 0} 
Flow 293: {36 215 0} 
Flow 294: {40 37 0} {37 216 0} 
Flow 295: {38 217 0} 
Flow 296: {123 39 0} {39 218 0} 
Flow 297: {122 42 0} {42 221 0} 
Flow 305: {51 230 0} 
Flow 309: {55 234 0} 
Flow 318: {66 245 0} 
Flow 323: {77 256 0} 
Flow 324: {48 75 0} {75 80 0} {80 259 0} 
Flow 328: {86 265 0} 
Flow 331: {87 90 0} {90 269 0} 
Flow 333: {94 273 0} 
Flow 334: {96 275 0} 
Flow 351: {106 23 0} {23 116 0} {116 117 0} {117 296 0} 
Flow 352: {119 118 0} {118 297 0} 
Flow 365: {134 313 0} 
Flow 367: {137 316 0} 
Flow 368: {138 317 0} 
Flow 369: {21 19 0} Flow 370: {22 107 0} {107 127 0} {115 29 0} {29 30 0} {30 33 0} {33 126 0} Flow 371: {106 104 0} {104 105 0} {105 110 0} {110 109 0} Flow 372: {101 52 0} {52 49 0} Flow 373: {101 57 0} Flow 403: {25 22 0} Flow 422: {57 45 0} {45 46 0} Flow 615: {109 108 0} Flow 635: {35 34 0} Flow 835: {42 122 0} Flow 859: {124 68 0} {68 66 0} {80 124 0} Flow 867: {124 67 0} Flow 868: {67 121 0} Flow 964: {57 49 0} Flow 965: {46 44 0} Flow 1471: {61 59 0} Flow 1476: {61 60 0} Flow 1544: {62 9 0} {9 61 0} Flow 1551: {63 64 0} Flow 1768: {67 124 0} Flow 1902: {71 121 0} Flow 1947: {74 108 0} {108 103 0} Flow 1948: {108 109 0} Flow 1949: {108 138 0} {138 137 0} {137 136 0} {136 135 0} Flow 2199: {82 83 0} Flow 3123: {111 110 0} Flow 3204: {114 119 0} Flow 3205: {117 116 0} {116 23 0} {23 106 0} Flow 3216: {118 119 0} Flow 3379: {103 108 0} Flow 3450: {128 103 0} Flow 3451: {129 28 0} Time taken running everything: 0 seconds
