networks/zoo_317_3790/zoo_317_3790-lower.sol
<?xml version = "1.0" encoding="UTF-8" standalone="yes"?>
<CPLEXSolution version="1.2">
 <header
   problemName="networks/zoo_317_3790/zoo_317_3790-lower.lp"
   solutionName="incumbent"
   solutionIndex="-1"
   objectiveValue="95"
   solutionTypeValue="3"
   solutionTypeString="primal"
   solutionStatusValue="101"
   solutionStatusString="integer optimal solution"
   solutionMethodString="mip"
   primalFeasible="1"
   dualFeasible="1"
   MIPNodes="0"
   MIPIterations="0"
   writeLevel="3"/>
 <quality
   epInt="1.0000000000000001e-05"
   epRHS="9.9999999999999995e-07"
   maxIntInfeas="0"
   maxPrimalInfeas="0"
   maxX="1"
   maxSlack="1"/>
 <variables>
  <variable name="Y(1,9)" index="7" value="1"/>
  <variable name="Y(2,10)" index="236" value="1"/>
  <variable name="Y(3,17)" index="471" value="1"/>
  <variable name="Y(4,19)" index="700" value="1"/>
  <variable name="Y(5,26)" index="935" value="1"/>
  <variable name="Y(6,28)" index="1165" value="1"/>
  <variable name="Y(7,34)" index="1398" value="1"/>
  <variable name="Y(8,44)" index="1636" value="1"/>
  <variable name="Y(9,46)" index="1866" value="1"/>
  <variable name="Y(10,48)" index="2095" value="1"/>
  <variable name="Y(11,49)" index="2324" value="1"/>
  <variable name="Y(12,53)" index="2556" value="1"/>
  <variable name="Y(13,57)" index="2788" value="1"/>
  <variable name="Y(14,60)" index="3019" value="1"/>
  <variable name="Y(15,61)" index="3248" value="1"/>
  <variable name="Y(16,64)" index="3479" value="1"/>
  <variable name="Y(17,67)" index="3710" value="1"/>
  <variable name="Y(18,83)" index="3954" value="1"/>
  <variable name="Y(19,85)" index="4184" value="1"/>
  <variable name="Y(20,93)" index="4420" value="1"/>
  <variable name="Y(21,97)" index="4652" value="1"/>
  <variable name="Y(22,98)" index="4881" value="1"/>
  <variable name="Y(23,99)" index="5110" value="1"/>
  <variable name="Y(24,100)" index="5339" value="1"/>
  <variable name="Y(25,101)" index="5568" value="1"/>
  <variable name="Y(26,102)" index="5797" value="1"/>
  <variable name="Y(27,103)" index="6026" value="1"/>
  <variable name="Y(28,106)" index="6257" value="1"/>
  <variable name="Y(29,107)" index="6486" value="1"/>
  <variable name="Y(30,109)" index="6716" value="1"/>
  <variable name="Y(31,112)" index="6947" value="1"/>
  <variable name="Y(32,115)" index="7178" value="1"/>
  <variable name="Y(33,119)" index="7410" value="1"/>
  <variable name="Y(34,123)" index="7641" value="1"/>
  <variable name="Y(35,125)" index="7871" value="1"/>
  <variable name="Y(36,126)" index="8100" value="1"/>
  <variable name="Y(37,128)" index="8330" value="1"/>
  <variable name="Y(38,129)" index="8559" value="1"/>
  <variable name="Y(39,135)" index="8793" value="1"/>
  <variable name="Y(43,1)" index="9576" value="1"/>
  <variable name="Y(44,2)" index="9805" value="1"/>
  <variable name="Y(45,3)" index="10034" value="1"/>
  <variable name="Y(48,13)" index="10727" value="1"/>
  <variable name="Y(49,15)" index="10957" value="1"/>
  <variable name="Y(52,20)" index="11645" value="1"/>
  <variable name="Y(55,31)" index="12340" value="1"/>
  <variable name="Y(57,43)" index="12807" value="1"/>
  <variable name="Y(59,45)" index="13265" value="1"/>
  <variable name="Y(63,50)" index="14181" value="1"/>
  <variable name="Y(64,52)" index="14411" value="1"/>
  <variable name="Y(66,54)" index="14869" value="1"/>
  <variable name="Y(67,56)" index="15099" value="1"/>
  <variable name="Y(69,58)" index="15557" value="1"/>
  <variable name="Y(72,63)" index="16246" value="1"/>
  <variable name="Y(74,65)" index="16704" value="1"/>
  <variable name="Y(76,71)" index="17166" value="1"/>
  <variable name="Y(77,72)" index="17395" value="1"/>
  <variable name="Y(78,73)" index="17624" value="1"/>
  <variable name="Y(80,84)" index="18091" value="1"/>
  <variable name="Y(82,88)" index="18551" value="1"/>
  <variable name="Y(83,89)" index="18780" value="1"/>
  <variable name="Y(94,108)" index="21307" value="1"/>
  <variable name="Y(96,110)" index="21765" value="1"/>
  <variable name="Y(98,113)" index="22224" value="1"/>
  <variable name="Y(99,114)" index="22453" value="1"/>
  <variable name="Y(102,122)" index="23144" value="1"/>
  <variable name="Y(106,127)" index="24061" value="1"/>
  <variable name="Y(109,130)" index="24748" value="1"/>
  <variable name="Y(110,131)" index="24977" value="1"/>
  <variable name="Y(111,132)" index="25206" value="1"/>
  <variable name="Y(112,133)" index="25435" value="1"/>
  <variable name="Y(278,8)" index="63162" value="1"/>
  <variable name="Y(281,11)" index="63849" value="1"/>
  <variable name="Y(284,16)" index="64538" value="1"/>
  <variable name="Y(287,22)" index="65227" value="1"/>
  <variable name="Y(288,25)" index="65458" value="1"/>
  <variable name="Y(293,36)" index="66608" value="1"/>
  <variable name="Y(294,37)" index="66837" value="1"/>
  <variable name="Y(295,38)" index="67066" value="1"/>
  <variable name="Y(296,39)" index="67295" value="1"/>
  <variable name="Y(297,42)" index="67526" value="1"/>
  <variable name="Y(305,51)" index="69358" value="1"/>
  <variable name="Y(309,55)" index="70274" value="1"/>
  <variable name="Y(318,66)" index="72337" value="1"/>
  <variable name="Y(323,77)" index="73488" value="1"/>
  <variable name="Y(324,80)" index="73719" value="1"/>
  <variable name="Y(328,86)" index="74637" value="1"/>
  <variable name="Y(331,90)" index="75325" value="1"/>
  <variable name="Y(333,94)" index="75785" value="1"/>
  <variable name="Y(334,96)" index="76015" value="1"/>
  <variable name="Y(351,117)" index="79912" value="1"/>
  <variable name="Y(352,118)" index="80141" value="1"/>
  <variable name="Y(365,134)" index="83120" value="1"/>
  <variable name="Y(367,137)" index="83579" value="1"/>
  <variable name="Y(368,138)" index="83808" value="1"/>
  <variable name="X(1,83,1)" index="864120" value="1"/>
  <variable name="X(1,125,44)" index="867953" value="1"/>
  <variable name="X(1,180,43)" index="871742" value="1"/>
  <variable name="X(2,3,45)" index="875534" value="1"/>
  <variable name="X(2,119,2)" index="879281" value="1"/>
  <variable name="X(2,125,1)" index="883070" value="1"/>
  <variable name="X(2,181,44)" index="886903" value="1"/>
  <variable name="X(3,2,40)" index="890689" value="1"/>
  <variable name="X(3,182,45)" index="894484" value="1"/>
  <variable name="X(4,3,40)" index="898269" value="1"/>
  <variable name="X(5,125,42)" index="902061" value="1"/>
  <variable name="X(7,8,1)" index="905810" value="1"/>
  <variable name="X(7,19,44)" index="909643" value="1"/>
  <variable name="X(8,7,117)" index="913506" value="1"/>
  <variable name="X(8,65,1)" index="917180" value="1"/>
  <variable name="X(8,187,278)" index="921247" value="1"/>
  <variable name="X(9,61,1544)" index="926303" value="1"/>
  <variable name="X(9,188,1)" index="928550" value="1"/>
  <variable name="X(10,12,20)" index="932359" value="1"/>
  <variable name="X(10,14,150)" index="936279" value="1"/>
  <variable name="X(10,189,2)" index="939921" value="1"/>
  <variable name="X(11,17,195)" index="943904" value="1"/>
  <variable name="X(11,190,281)" index="947780" value="1"/>
  <variable name="X(12,10,205)" index="951494" value="1"/>
  <variable name="X(12,93,20)" index="955099" value="1"/>
  <variable name="X(13,69,151)" index="959020" value="1"/>
  <variable name="X(13,73,47)" index="962706" value="1"/>
  <variable name="X(13,192,48)" index="966497" value="1"/>
  <variable name="X(14,10,2)" index="970241" value="1"/>
  <variable name="X(14,15,151)" index="974180" value="1"/>
  <variable name="X(14,16,150)" index="977969" value="1"/>
  <variable name="X(15,14,47)" index="981656" value="1"/>
  <variable name="X(15,73,151)" index="985550" value="1"/>
  <variable name="X(15,194,49)" index="989238" value="1"/>
  <variable name="X(16,14,2)" index="992981" value="1"/>
  <variable name="X(16,40,150)" index="996919" value="1"/>
  <variable name="X(16,195,284)" index="1000843" value="1"/>
  <variable name="X(17,11,281)" index="1004630" value="1"/>
  <variable name="X(17,49,195)" index="1008334" value="1"/>
  <variable name="X(17,196,3)" index="1011932" value="1"/>
  <variable name="X(19,7,1)" index="1015720" value="1"/>
  <variable name="X(19,24,44)" index="1019553" value="1"/>
  <variable name="X(19,198,4)" index="1023303" value="1"/>
  <variable name="X(20,199,52)" index="1027141" value="1"/>
  <variable name="X(21,19,369)" index="1031248" value="1"/>
  <variable name="X(22,25,288)" index="1034957" value="1"/>
  <variable name="X(22,107,370)" index="1038829" value="1"/>
  <variable name="X(22,201,287)" index="1042536" value="1"/>
  <variable name="X(23,106,3205)" index="1049244" value="1"/>
  <variable name="X(23,116,351)" index="1050180" value="1"/>
  <variable name="X(24,19,1)" index="1053620" value="1"/>
  <variable name="X(24,20,52)" index="1057461" value="1"/>
  <variable name="X(24,98,44)" index="1061243" value="1"/>
  <variable name="X(25,22,403)" index="1065392" value="1"/>
  <variable name="X(25,204,288)" index="1069067" value="1"/>
  <variable name="X(26,27,150)" index="1072719" value="1"/>
  <variable name="X(26,28,2)" index="1076361" value="1"/>
  <variable name="X(26,205,5)" index="1080154" value="1"/>
  <variable name="X(27,26,2)" index="1083941" value="1"/>
  <variable name="X(27,31,150)" index="1087879" value="1"/>
  <variable name="X(28,26,53)" index="1091572" value="1"/>
  <variable name="X(28,103,2)" index="1095311" value="1"/>
  <variable name="X(28,129,37)" index="1099136" value="1"/>
  <variable name="X(28,207,6)" index="1102895" value="1"/>
  <variable name="X(29,30,370)" index="1107049" value="1"/>
  <variable name="X(29,115,28)" index="1110497" value="1"/>
  <variable name="X(30,29,28)" index="1114287" value="1"/>
  <variable name="X(30,33,370)" index="1118419" value="1"/>
  <variable name="X(31,27,2)" index="1121841" value="1"/>
  <variable name="X(31,126,150)" index="1125779" value="1"/>
  <variable name="X(31,210,55)" index="1129474" value="1"/>
  <variable name="X(33,30,28)" index="1133237" value="1"/>
  <variable name="X(33,126,370)" index="1137369" value="1"/>
  <variable name="X(34,38,2)" index="1140791" value="1"/>
  <variable name="X(34,133,150)" index="1144729" value="1"/>
  <variable name="X(34,213,7)" index="1148376" value="1"/>
  <variable name="X(35,34,635)" index="1152794" value="1"/>
  <variable name="X(36,40,2)" index="1155951" value="1"/>
  <variable name="X(36,123,150)" index="1159889" value="1"/>
  <variable name="X(36,215,293)" index="1163822" value="1"/>
  <variable name="X(37,216,294)" index="1167613" value="1"/>
  <variable name="X(38,34,150)" index="1171259" value="1"/>
  <variable name="X(38,41,2)" index="1174901" value="1"/>
  <variable name="X(38,217,295)" index="1178984" value="1"/>
  <variable name="X(39,218,296)" index="1182775" value="1"/>
  <variable name="X(40,16,2)" index="1186271" value="1"/>
  <variable name="X(40,36,150)" index="1190209" value="1"/>
  <variable name="X(40,37,294)" index="1194143" value="1"/>
  <variable name="X(41,38,150)" index="1197789" value="1"/>
  <variable name="X(41,123,2)" index="1201431" value="1"/>
  <variable name="X(42,122,835)" index="1206054" value="1"/>
  <variable name="X(42,221,297)" index="1209306" value="1"/>
  <variable name="X(43,86,82)" index="1212881" value="1"/>
  <variable name="X(43,122,153)" index="1216742" value="1"/>
  <variable name="X(43,222,57)" index="1220436" value="1"/>
  <variable name="X(44,46,9)" index="1224178" value="1"/>
  <variable name="X(44,58,10)" index="1227969" value="1"/>
  <variable name="X(44,64,195)" index="1231944" value="1"/>
  <variable name="X(44,102,3)" index="1235542" value="1"/>
  <variable name="X(44,223,8)" index="1239337" value="1"/>
  <variable name="X(45,46,422)" index="1243541" value="1"/>
  <variable name="X(45,57,13)" index="1246922" value="1"/>
  <variable name="X(45,224,59)" index="1250758" value="1"/>
  <variable name="X(46,44,965)" index="1255454" value="1"/>
  <variable name="X(46,45,13)" index="1258292" value="1"/>
  <variable name="X(46,225,9)" index="1262078" value="1"/>
  <variable name="X(48,58,158)" index="1266017" value="1"/>
  <variable name="X(48,75,324)" index="1269973" value="1"/>
  <variable name="X(48,227,10)" index="1273449" value="1"/>
  <variable name="X(49,17,3)" index="1277232" value="1"/>
  <variable name="X(49,50,63)" index="1281082" value="1"/>
  <variable name="X(49,51,57)" index="1284866" value="1"/>
  <variable name="X(49,52,64)" index="1288663" value="1"/>
  <variable name="X(49,57,164)" index="1292553" value="1"/>
  <variable name="X(49,102,179)" index="1296358" value="1"/>
  <variable name="X(49,228,11)" index="1299980" value="1"/>
  <variable name="X(50,229,63)" index="1303822" value="1"/>
  <variable name="X(51,49,153)" index="1307702" value="1"/>
  <variable name="X(51,122,57)" index="1311396" value="1"/>
  <variable name="X(51,230,305)" index="1315434" value="1"/>
  <variable name="X(52,49,372)" index="1319291" value="1"/>
  <variable name="X(52,101,163)" index="1322872" value="1"/>
  <variable name="X(52,231,64)" index="1326563" value="1"/>
  <variable name="X(53,54,66)" index="1330355" value="1"/>
  <variable name="X(53,101,25)" index="1334104" value="1"/>
  <variable name="X(53,232,12)" index="1337881" value="1"/>
  <variable name="X(54,53,12)" index="1341671" value="1"/>
  <variable name="X(54,55,196)" index="1345645" value="1"/>
  <variable name="X(54,233,66)" index="1349305" value="1"/>
  <variable name="X(55,54,12)" index="1353041" value="1"/>
  <variable name="X(55,94,196)" index="1357015" value="1"/>
  <variable name="X(55,234,309)" index="1360918" value="1"/>
  <variable name="X(56,235,67)" index="1364466" value="1"/>
  <variable name="X(57,45,422)" index="1368611" value="1"/>
  <variable name="X(57,49,964)" index="1372943" value="1"/>
  <variable name="X(57,101,65)" index="1375834" value="1"/>
  <variable name="X(57,236,13)" index="1379572" value="1"/>
  <variable name="X(58,44,158)" index="1383507" value="1"/>
  <variable name="X(58,48,10)" index="1387149" value="1"/>
  <variable name="X(58,237,69)" index="1390998" value="1"/>
  <variable name="X(59,60,14)" index="1394733" value="1"/>
  <variable name="X(59,61,1)" index="1398510" value="1"/>
  <variable name="X(59,64,3)" index="1402302" value="1"/>
  <variable name="X(59,65,168)" index="1406257" value="1"/>
  <variable name="X(60,59,154)" index="1410033" value="1"/>
  <variable name="X(60,61,151)" index="1413820" value="1"/>
  <variable name="X(60,76,17)" index="1417476" value="1"/>
  <variable name="X(60,239,14)" index="1421263" value="1"/>
  <variable name="X(61,9,1)" index="1425040" value="1"/>
  <variable name="X(61,59,1471)" index="1430300" value="1"/>
  <variable name="X(61,60,1476)" index="1434095" value="1"/>
  <variable name="X(61,240,15)" index="1436424" value="1"/>
  <variable name="X(62,9,1544)" index="1441743" value="1"/>
  <variable name="X(63,64,1551)" index="1445540" value="1"/>
  <variable name="X(63,242,72)" index="1447851" value="1"/>
  <variable name="X(64,44,3)" index="1451572" value="1"/>
  <variable name="X(64,59,195)" index="1455554" value="1"/>
  <variable name="X(64,63,72)" index="1459221" value="1"/>
  <variable name="X(64,243,16)" index="1462955" value="1"/>
  <variable name="X(65,8,195)" index="1466924" value="1"/>
  <variable name="X(65,59,1)" index="1470520" value="1"/>
  <variable name="X(65,244,74)" index="1474383" value="1"/>
  <variable name="X(66,68,158)" index="1478257" value="1"/>
  <variable name="X(66,70,47)" index="1481936" value="1"/>
  <variable name="X(66,121,151)" index="1485830" value="1"/>
  <variable name="X(66,245,318)" index="1489787" value="1"/>
  <variable name="X(67,121,868)" index="1494127" value="1"/>
  <variable name="X(67,124,1768)" index="1498817" value="1"/>
  <variable name="X(67,246,17)" index="1500856" value="1"/>
  <variable name="X(68,66,859)" index="1505488" value="1"/>
  <variable name="X(68,124,158)" index="1508577" value="1"/>
  <variable name="X(69,13,47)" index="1512256" value="1"/>
  <variable name="X(69,56,67)" index="1516066" value="1"/>
  <variable name="X(69,70,151)" index="1519940" value="1"/>
  <variable name="X(70,66,151)" index="1523730" value="1"/>
  <variable name="X(70,69,47)" index="1527416" value="1"/>
  <variable name="X(71,121,1902)" index="1533061" value="1"/>
  <variable name="X(71,250,76)" index="1535025" value="1"/>
  <variable name="X(72,100,2)" index="1538741" value="1"/>
  <variable name="X(72,109,54)" index="1542583" value="1"/>
  <variable name="X(72,251,77)" index="1546396" value="1"/>
  <variable name="X(73,13,151)" index="1550260" value="1"/>
  <variable name="X(73,15,47)" index="1553946" value="1"/>
  <variable name="X(73,252,78)" index="1557767" value="1"/>
  <variable name="X(74,108,1947)" index="1563426" value="1"/>
  <variable name="X(75,48,158)" index="1565427" value="1"/>
  <variable name="X(75,80,324)" index="1569383" value="1"/>
  <variable name="X(76,60,151)" index="1573000" value="1"/>
  <variable name="X(76,79,17)" index="1576656" value="1"/>
  <variable name="X(77,78,151)" index="1580580" value="1"/>
  <variable name="X(77,121,17)" index="1584236" value="1"/>
  <variable name="X(77,256,323)" index="1588332" value="1"/>
  <variable name="X(78,77,17)" index="1591816" value="1"/>
  <variable name="X(78,79,151)" index="1595740" value="1"/>
  <variable name="X(79,76,151)" index="1599530" value="1"/>
  <variable name="X(79,78,17)" index="1603186" value="1"/>
  <variable name="X(80,75,158)" index="1607117" value="1"/>
  <variable name="X(80,124,859)" index="1611608" value="1"/>
  <variable name="X(80,259,324)" index="1614863" value="1"/>
  <variable name="X(81,85,43)" index="1618372" value="1"/>
  <variable name="X(81,98,1)" index="1622120" value="1"/>
  <variable name="X(82,83,2199)" index="1628108" value="1"/>
  <variable name="X(83,1,43)" index="1629742" value="1"/>
  <variable name="X(83,84,1)" index="1633490" value="1"/>
  <variable name="X(83,262,18)" index="1637297" value="1"/>
  <variable name="X(84,83,43)" index="1641112" value="1"/>
  <variable name="X(84,85,1)" index="1644860" value="1"/>
  <variable name="X(84,263,80)" index="1648729" value="1"/>
  <variable name="X(85,81,1)" index="1652440" value="1"/>
  <variable name="X(85,84,43)" index="1656272" value="1"/>
  <variable name="X(85,264,19)" index="1660038" value="1"/>
  <variable name="X(86,43,153)" index="1663962" value="1"/>
  <variable name="X(86,88,82)" index="1667681" value="1"/>
  <variable name="X(86,265,328)" index="1671717" value="1"/>
  <variable name="X(87,88,153)" index="1675332" value="1"/>
  <variable name="X(87,89,83)" index="1679052" value="1"/>
  <variable name="X(87,90,331)" index="1683090" value="1"/>
  <variable name="X(88,86,153)" index="1686702" value="1"/>
  <variable name="X(88,87,83)" index="1690422" value="1"/>
  <variable name="X(88,267,82)" index="1694211" value="1"/>
  <variable name="X(89,87,153)" index="1698072" value="1"/>
  <variable name="X(89,92,84)" index="1701793" value="1"/>
  <variable name="X(89,268,83)" index="1705582" value="1"/>
  <variable name="X(90,269,331)" index="1709620" value="1"/>
  <variable name="X(91,92,153)" index="1713232" value="1"/>
  <variable name="X(91,93,84)" index="1716953" value="1"/>
  <variable name="X(92,89,153)" index="1720812" value="1"/>
  <variable name="X(92,91,84)" index="1724533" value="1"/>
  <variable name="X(93,12,205)" index="1728444" value="1"/>
  <variable name="X(93,91,153)" index="1732182" value="1"/>
  <variable name="X(93,272,20)" index="1735839" value="1"/>
  <variable name="X(94,55,12)" index="1739621" value="1"/>
  <variable name="X(94,96,196)" index="1743595" value="1"/>
  <variable name="X(94,273,333)" index="1747522" value="1"/>
  <variable name="X(95,96,12)" index="1750991" value="1"/>
  <variable name="X(95,97,196)" index="1754965" value="1"/>
  <variable name="X(96,94,12)" index="1758571" value="1"/>
  <variable name="X(96,95,196)" index="1762545" value="1"/>
  <variable name="X(96,275,334)" index="1766473" value="1"/>
  <variable name="X(97,95,12)" index="1769941" value="1"/>
  <variable name="X(97,135,196)" index="1773915" value="1"/>
  <variable name="X(97,276,21)" index="1777530" value="1"/>
  <variable name="X(98,24,1)" index="1781300" value="1"/>
  <variable name="X(98,81,43)" index="1785132" value="1"/>
  <variable name="X(98,99,12)" index="1788891" value="1"/>
  <variable name="X(98,277,22)" index="1792691" value="1"/>
  <variable name="X(99,98,170)" index="1796629" value="1"/>
  <variable name="X(99,135,12)" index="1800261" value="1"/>
  <variable name="X(99,278,23)" index="1804062" value="1"/>
  <variable name="X(100,72,54)" index="1807883" value="1"/>
  <variable name="X(100,130,2)" index="1811621" value="1"/>
  <variable name="X(100,134,171)" index="1815580" value="1"/>
  <variable name="X(100,279,24)" index="1819223" value="1"/>
  <variable name="X(101,52,372)" index="1823361" value="1"/>
  <variable name="X(101,53,65)" index="1826844" value="1"/>
  <variable name="X(101,57,373)" index="1830942" value="1"/>
  <variable name="X(101,280,25)" index="1834384" value="1"/>
  <variable name="X(102,44,195)" index="1838344" value="1"/>
  <variable name="X(102,49,3)" index="1841942" value="1"/>
  <variable name="X(102,281,26)" index="1845755" value="1"/>
  <variable name="X(103,28,53)" index="1849572" value="1"/>
  <variable name="X(103,108,3379)" index="1856688" value="1"/>
  <variable name="X(103,109,2)" index="1857101" value="1"/>
  <variable name="X(103,128,107)" index="1860996" value="1"/>
  <variable name="X(103,282,27)" index="1864706" value="1"/>
  <variable name="X(104,105,371)" index="1868840" value="1"/>
  <variable name="X(104,106,92)" index="1872351" value="1"/>
  <variable name="X(105,104,92)" index="1876141" value="1"/>
  <variable name="X(105,110,371)" index="1880210" value="1"/>
  <variable name="X(106,23,351)" index="1883980" value="1"/>
  <variable name="X(106,104,371)" index="1887790" value="1"/>
  <variable name="X(106,127,93)" index="1891302" value="1"/>
  <variable name="X(106,285,28)" index="1895027" value="1"/>
  <variable name="X(107,22,287)" index="1899076" value="1"/>
  <variable name="X(107,127,370)" index="1902949" value="1"/>
  <variable name="X(107,286,29)" index="1906398" value="1"/>
  <variable name="X(108,103,1947)" index="1912106" value="1"/>
  <variable name="X(108,109,1948)" index="1915897" value="1"/>
  <variable name="X(108,138,1949)" index="1919688" value="1"/>
  <variable name="X(108,287,94)" index="1921623" value="1"/>
  <variable name="X(109,72,2)" index="1925321" value="1"/>
  <variable name="X(109,103,53)" index="1929162" value="1"/>
  <variable name="X(109,108,615)" index="1933514" value="1"/>
  <variable name="X(109,110,92)" index="1936781" value="1"/>
  <variable name="X(109,288,30)" index="1940509" value="1"/>
  <variable name="X(110,105,92)" index="1944361" value="1"/>
  <variable name="X(110,109,371)" index="1948430" value="1"/>
  <variable name="X(110,289,96)" index="1951945" value="1"/>
  <variable name="X(111,110,3123)" index="1958762" value="1"/>
  <variable name="X(112,113,98)" index="1959527" value="1"/>
  <variable name="X(112,127,28)" index="1963247" value="1"/>
  <variable name="X(112,291,31)" index="1967040" value="1"/>
  <variable name="X(113,112,28)" index="1970827" value="1"/>
  <variable name="X(113,115,186)" index="1974775" value="1"/>
  <variable name="X(113,292,98)" index="1978477" value="1"/>
  <variable name="X(114,119,3204)" index="1985373" value="1"/>
  <variable name="X(114,293,99)" index="1986058" value="1"/>
  <variable name="X(115,29,370)" index="1990119" value="1"/>
  <variable name="X(115,113,28)" index="1993567" value="1"/>
  <variable name="X(115,294,32)" index="1997361" value="1"/>
  <variable name="X(116,23,3205)" index="2004324" value="1"/>
  <variable name="X(116,117,351)" index="2005260" value="1"/>
  <variable name="X(117,116,3205)" index="2011904" value="1"/>
  <variable name="X(117,296,351)" index="2012840" value="1"/>
  <variable name="X(118,119,3216)" index="2019495" value="1"/>
  <variable name="X(118,297,352)" index="2020421" value="1"/>
  <variable name="X(119,2,150)" index="2024009" value="1"/>
  <variable name="X(119,114,99)" index="2027748" value="1"/>
  <variable name="X(119,118,352)" index="2031791" value="1"/>
  <variable name="X(119,126,2)" index="2035231" value="1"/>
  <variable name="X(119,298,33)" index="2039052" value="1"/>
  <variable name="X(121,66,47)" index="2042856" value="1"/>
  <variable name="X(121,67,17)" index="2046616" value="1"/>
  <variable name="X(121,71,76)" index="2050465" value="1"/>
  <variable name="X(121,77,151)" index="2054330" value="1"/>
  <variable name="X(122,42,297)" index="2058266" value="1"/>
  <variable name="X(122,43,57)" index="2061816" value="1"/>
  <variable name="X(122,51,153)" index="2065702" value="1"/>
  <variable name="X(122,301,102)" index="2069441" value="1"/>
  <variable name="X(123,36,2)" index="2073131" value="1"/>
  <variable name="X(123,39,296)" index="2077215" value="1"/>
  <variable name="X(123,41,150)" index="2080859" value="1"/>
  <variable name="X(123,302,34)" index="2084533" value="1"/>
  <variable name="X(124,67,867)" index="2089156" value="1"/>
  <variable name="X(124,68,859)" index="2092938" value="1"/>
  <variable name="X(124,80,158)" index="2096027" value="1"/>
  <variable name="X(125,1,1)" index="2099660" value="1"/>
  <variable name="X(125,2,44)" index="2103493" value="1"/>
  <variable name="X(125,304,35)" index="2107274" value="1"/>
  <variable name="X(126,31,2)" index="2111031" value="1"/>
  <variable name="X(126,33,28)" index="2114847" value="1"/>
  <variable name="X(126,119,150)" index="2118759" value="1"/>
  <variable name="X(126,305,36)" index="2122435" value="1"/>
  <variable name="X(127,106,28)" index="2126217" value="1"/>
  <variable name="X(127,107,29)" index="2130008" value="1"/>
  <variable name="X(127,112,97)" index="2133866" value="1"/>
  <variable name="X(127,306,106)" index="2137665" value="1"/>
  <variable name="X(128,103,3450)" index="2144799" value="1"/>
  <variable name="X(128,307,37)" index="2145176" value="1"/>
  <variable name="X(129,28,3451)" index="2152380" value="1"/>
  <variable name="X(129,128,37)" index="2152756" value="1"/>
  <variable name="X(129,308,38)" index="2156547" value="1"/>
  <variable name="X(130,100,150)" index="2160449" value="1"/>
  <variable name="X(130,131,2)" index="2164091" value="1"/>
  <variable name="X(130,309,109)" index="2167988" value="1"/>
  <variable name="X(131,130,150)" index="2171819" value="1"/>
  <variable name="X(131,132,2)" index="2175461" value="1"/>
  <variable name="X(131,310,110)" index="2179359" value="1"/>
  <variable name="X(132,131,150)" index="2183189" value="1"/>
  <variable name="X(132,133,2)" index="2186831" value="1"/>
  <variable name="X(132,311,111)" index="2190730" value="1"/>
  <variable name="X(133,34,2)" index="2194411" value="1"/>
  <variable name="X(133,132,150)" index="2198349" value="1"/>
  <variable name="X(133,312,112)" index="2202101" value="1"/>
  <variable name="X(134,100,54)" index="2205833" value="1"/>
  <variable name="X(134,135,171)" index="2209740" value="1"/>
  <variable name="X(134,313,365)" index="2213724" value="1"/>
  <variable name="X(135,97,12)" index="2217161" value="1"/>
  <variable name="X(135,99,170)" index="2221109" value="1"/>
  <variable name="X(135,134,54)" index="2224783" value="1"/>
  <variable name="X(135,136,94)" index="2228613" value="1"/>
  <variable name="X(135,314,39)" index="2232348" value="1"/>
  <variable name="X(136,135,1949)" index="2238048" value="1"/>
  <variable name="X(136,137,94)" index="2239983" value="1"/>
  <variable name="X(137,136,1949)" index="2245628" value="1"/>
  <variable name="X(137,138,94)" index="2247563" value="1"/>
  <variable name="X(137,316,367)" index="2251626" value="1"/>
  <variable name="X(138,108,94)" index="2255143" value="1"/>
  <variable name="X(138,137,1949)" index="2260788" value="1"/>
  <variable name="X(138,317,368)" index="2262997" value="1"/>
 </variables>
</CPLEXSolution>
